; Copyright (c) 2026 The RIINA Authors. All rights reserved.
; Auto-generated from 02_FORMAL/coq/domains/DO178CCompliance.v (41 validations)
; Generated by scripts/generate-full-stack.py
;
; Translation Validation for DO178CCompliance
; Layer 9: Verifies compiler backend preserves formal semantics.
; Each assertion checks source IR ≡ target code for a proven property.

(set-logic QF_LIA)
(set-option :produce-models true)

; IR node representation
(declare-sort IRNode 0)
(declare-sort TargetNode 0)

; dal_leq: source semantics (matches Coq)
(declare-fun source_dal_leq () Bool)
(declare-fun target_dal_leq () Bool)
(assert (= source_dal_leq target_dal_leq))

; riina_fm_category: source semantics (matches Coq)
(declare-fun source_riina_fm_category () Bool)
(declare-fun target_riina_fm_category () Bool)
(assert (= source_riina_fm_category target_riina_fm_category))

; mk_compliant_planning: source semantics (matches Coq)
(declare-fun source_mk_compliant_planning () Bool)
(declare-fun target_mk_compliant_planning () Bool)
(assert (= source_mk_compliant_planning target_mk_compliant_planning))

; mk_compliant_development: source semantics (matches Coq)
(declare-fun source_mk_compliant_development () Bool)
(declare-fun target_mk_compliant_development () Bool)
(assert (= source_mk_compliant_development target_mk_compliant_development))

; mk_compliant_verification: source semantics (matches Coq)
(declare-fun source_mk_compliant_verification () Bool)
(declare-fun target_mk_compliant_verification () Bool)
(assert (= source_mk_compliant_verification target_mk_compliant_verification))

; mk_compliant_cm: source semantics (matches Coq)
(declare-fun source_mk_compliant_cm () Bool)
(declare-fun target_mk_compliant_cm () Bool)
(assert (= source_mk_compliant_cm target_mk_compliant_cm))

; mk_compliant_qa: source semantics (matches Coq)
(declare-fun source_mk_compliant_qa () Bool)
(declare-fun target_mk_compliant_qa () Bool)
(assert (= source_mk_compliant_qa target_mk_compliant_qa))

; mk_compliant_fm: source semantics (matches Coq)
(declare-fun source_mk_compliant_fm () Bool)
(declare-fun target_mk_compliant_fm () Bool)
(assert (= source_mk_compliant_fm target_mk_compliant_fm))

; planning_compliant: source semantics (matches Coq)
(declare-fun source_planning_compliant () Bool)
(declare-fun target_planning_compliant () Bool)
(assert (= source_planning_compliant target_planning_compliant))

; development_compliant: source semantics (matches Coq)
(declare-fun source_development_compliant () Bool)
(declare-fun target_development_compliant () Bool)
(assert (= source_development_compliant target_development_compliant))

; verification_compliant: source semantics (matches Coq)
(declare-fun source_verification_compliant () Bool)
(declare-fun target_verification_compliant () Bool)
(assert (= source_verification_compliant target_verification_compliant))

; cm_compliant: source semantics (matches Coq)
(declare-fun source_cm_compliant () Bool)
(declare-fun target_cm_compliant () Bool)
(assert (= source_cm_compliant target_cm_compliant))

; qa_compliant: source semantics (matches Coq)
(declare-fun source_qa_compliant () Bool)
(declare-fun target_qa_compliant () Bool)
(assert (= source_qa_compliant target_qa_compliant))

; fm_compliant: source semantics (matches Coq)
(declare-fun source_fm_compliant () Bool)
(declare-fun target_fm_compliant () Bool)
(assert (= source_fm_compliant target_fm_compliant))

; do178c_level_a_compliant: source semantics (matches Coq)
(declare-fun source_do178c_level_a_compliant () Bool)
(declare-fun target_do178c_level_a_compliant () Bool)
(assert (= source_do178c_level_a_compliant target_do178c_level_a_compliant))

; riina_do178c: source semantics (matches Coq)
(declare-fun source_riina_do178c () Bool)
(declare-fun target_riina_do178c () Bool)
(assert (= source_riina_do178c target_riina_do178c))

; andb_true_iff: translation preserves property (matches Coq: Lemma)
(declare-fun source_andb_true_iff () Bool)
(declare-fun target_andb_true_iff () Bool)
(assert (= source_andb_true_iff target_andb_true_iff))

; DO178_001_dal_reflexive: translation preserves property (matches Coq: Theorem)
(declare-fun source_DO178_001_dal_reflexive () Bool)
(declare-fun target_DO178_001_dal_reflexive () Bool)
(assert (= source_DO178_001_dal_reflexive target_DO178_001_dal_reflexive))

; DO178_002_dal_transitive: translation preserves property (matches Coq: Theorem)
(declare-fun source_DO178_002_dal_transitive () Bool)
(declare-fun target_DO178_002_dal_transitive () Bool)
(assert (= source_DO178_002_dal_transitive target_DO178_002_dal_transitive))

; DO178_003_dal_e_bottom: translation preserves property (matches Coq: Theorem)
(declare-fun source_DO178_003_dal_e_bottom () Bool)
(declare-fun target_DO178_003_dal_e_bottom () Bool)
(assert (= source_DO178_003_dal_e_bottom target_DO178_003_dal_e_bottom))

; DO178_004_dal_a_top: translation preserves property (matches Coq: Theorem)
(declare-fun source_DO178_004_dal_a_top () Bool)
(declare-fun target_DO178_004_dal_a_top () Bool)
(assert (= source_DO178_004_dal_a_top target_DO178_004_dal_a_top))

; DO178_005_planning_valid: translation preserves property (matches Coq: Theorem)
(declare-fun source_DO178_005_planning_valid () Bool)
(declare-fun target_DO178_005_planning_valid () Bool)
(assert (= source_DO178_005_planning_valid target_DO178_005_planning_valid))

; DO178_006_planning_standards: translation preserves property (matches Coq: Theorem)
(declare-fun source_DO178_006_planning_standards () Bool)
(declare-fun target_DO178_006_planning_standards () Bool)
(assert (= source_DO178_006_planning_standards target_DO178_006_planning_standards))

; DO178_007_lifecycle_required: translation preserves property (matches Coq: Theorem)
(declare-fun source_DO178_007_lifecycle_required () Bool)
(declare-fun target_DO178_007_lifecycle_required () Bool)
(assert (= source_DO178_007_lifecycle_required target_DO178_007_lifecycle_required))

; DO178_008_development_valid: translation preserves property (matches Coq: Theorem)
(declare-fun source_DO178_008_development_valid () Bool)
(declare-fun target_DO178_008_development_valid () Bool)
(assert (= source_DO178_008_development_valid target_DO178_008_development_valid))

; DO178_009_requirements_complete: translation preserves property (matches Coq: Theorem)
(declare-fun source_DO178_009_requirements_complete () Bool)
(declare-fun target_DO178_009_requirements_complete () Bool)
(assert (= source_DO178_009_requirements_complete target_DO178_009_requirements_complete))

; DO178_010_requirements_traceable: translation preserves property (matches Coq: Theorem)
(declare-fun source_DO178_010_requirements_traceable () Bool)
(declare-fun target_DO178_010_requirements_traceable () Bool)
(assert (= source_DO178_010_requirements_traceable target_DO178_010_requirements_traceable))

; DO178_011_code_complete: translation preserves property (matches Coq: Theorem)
(declare-fun source_DO178_011_code_complete () Bool)
(declare-fun target_DO178_011_code_complete () Bool)
(assert (= source_DO178_011_code_complete target_DO178_011_code_complete))

; DO178_012_code_traceable: translation preserves property (matches Coq: Theorem)
(declare-fun source_DO178_012_code_traceable () Bool)
(declare-fun target_DO178_012_code_traceable () Bool)
(assert (= source_DO178_012_code_traceable target_DO178_012_code_traceable))

; DO178_013_verification_valid: translation preserves property (matches Coq: Theorem)
(declare-fun source_DO178_013_verification_valid () Bool)
(declare-fun target_DO178_013_verification_valid () Bool)
(assert (= source_DO178_013_verification_valid target_DO178_013_verification_valid))

; DO178_014_mcdc_required: translation preserves property (matches Coq: Theorem)
(declare-fun source_DO178_014_mcdc_required () Bool)
(declare-fun target_DO178_014_mcdc_required () Bool)
(assert (= source_DO178_014_mcdc_required target_DO178_014_mcdc_required))

; DO178_015_structural_coverage: translation preserves property (matches Coq: Theorem)
(declare-fun source_DO178_015_structural_coverage () Bool)
(declare-fun target_DO178_015_structural_coverage () Bool)
(assert (= source_DO178_015_structural_coverage target_DO178_015_structural_coverage))

; DO178_016_requirements_review: translation preserves property (matches Coq: Theorem)
(declare-fun source_DO178_016_requirements_review () Bool)
(declare-fun target_DO178_016_requirements_review () Bool)
(assert (= source_DO178_016_requirements_review target_DO178_016_requirements_review))

; DO178_017_code_review: translation preserves property (matches Coq: Theorem)
(declare-fun source_DO178_017_code_review () Bool)
(declare-fun target_DO178_017_code_review () Bool)
(assert (= source_DO178_017_code_review target_DO178_017_code_review))

; DO178_018_cm_valid: translation preserves property (matches Coq: Theorem)
(declare-fun source_DO178_018_cm_valid () Bool)
(declare-fun target_DO178_018_cm_valid () Bool)
(assert (= source_DO178_018_cm_valid target_DO178_018_cm_valid))

; DO178_019_change_control: translation preserves property (matches Coq: Theorem)
(declare-fun source_DO178_019_change_control () Bool)
(declare-fun target_DO178_019_change_control () Bool)
(assert (= source_DO178_019_change_control target_DO178_019_change_control))

; DO178_020_traceability: translation preserves property (matches Coq: Theorem)
(declare-fun source_DO178_020_traceability () Bool)
(declare-fun target_DO178_020_traceability () Bool)
(assert (= source_DO178_020_traceability target_DO178_020_traceability))

; DO178_021_qa_valid: translation preserves property (matches Coq: Theorem)
(declare-fun source_DO178_021_qa_valid () Bool)
(declare-fun target_DO178_021_qa_valid () Bool)
(assert (= source_DO178_021_qa_valid target_DO178_021_qa_valid))

; DO178_022_qa_independence: translation preserves property (matches Coq: Theorem)
(declare-fun source_DO178_022_qa_independence () Bool)
(declare-fun target_DO178_022_qa_independence () Bool)
(assert (= source_DO178_022_qa_independence target_DO178_022_qa_independence))

; DO178_023_audits: translation preserves property (matches Coq: Theorem)
(declare-fun source_DO178_023_audits () Bool)
(declare-fun target_DO178_023_audits () Bool)
(assert (= source_DO178_023_audits target_DO178_023_audits))

; DO178_024_fm_valid: translation preserves property (matches Coq: Theorem)
(declare-fun source_DO178_024_fm_valid () Bool)
(declare-fun target_DO178_024_fm_valid () Bool)
(assert (= source_DO178_024_fm_valid target_DO178_024_fm_valid))

; DO178_025_fm_soundness: translation preserves property (matches Coq: Theorem)
(declare-fun source_DO178_025_fm_soundness () Bool)
(declare-fun target_DO178_025_fm_soundness () Bool)
(assert (= source_DO178_025_fm_soundness target_DO178_025_fm_soundness))

; DO178_026_fm_specification: translation preserves property (matches Coq: Theorem)
(declare-fun source_DO178_026_fm_specification () Bool)
(declare-fun target_DO178_026_fm_specification () Bool)
(assert (= source_DO178_026_fm_specification target_DO178_026_fm_specification))

; DO178_027_riina_theorem_proving: translation preserves property (matches Coq: Theorem)
(declare-fun source_DO178_027_riina_theorem_proving () Bool)
(declare-fun target_DO178_027_riina_theorem_proving () Bool)
(assert (= source_DO178_027_riina_theorem_proving target_DO178_027_riina_theorem_proving))

; DO178_028_riina_level_a: translation preserves property (matches Coq: Theorem)
(declare-fun source_DO178_028_riina_level_a () Bool)
(declare-fun target_DO178_028_riina_level_a () Bool)
(assert (= source_DO178_028_riina_level_a target_DO178_028_riina_level_a))

; DO178_029_level_a_all_objectives: translation preserves property (matches Coq: Theorem)
(declare-fun source_DO178_029_level_a_all_objectives () Bool)
(declare-fun target_DO178_029_level_a_all_objectives () Bool)
(assert (= source_DO178_029_level_a_all_objectives target_DO178_029_level_a_all_objectives))

; DO178_030_level_a_planning: translation preserves property (matches Coq: Theorem)
(declare-fun source_DO178_030_level_a_planning () Bool)
(declare-fun target_DO178_030_level_a_planning () Bool)
(assert (= source_DO178_030_level_a_planning target_DO178_030_level_a_planning))

; DO178_031_level_a_development: translation preserves property (matches Coq: Theorem)
(declare-fun source_DO178_031_level_a_development () Bool)
(declare-fun target_DO178_031_level_a_development () Bool)
(assert (= source_DO178_031_level_a_development target_DO178_031_level_a_development))

; DO178_032_level_a_verification: translation preserves property (matches Coq: Theorem)
(declare-fun source_DO178_032_level_a_verification () Bool)
(declare-fun target_DO178_032_level_a_verification () Bool)
(assert (= source_DO178_032_level_a_verification target_DO178_032_level_a_verification))

; DO178_033_level_a_cm: translation preserves property (matches Coq: Theorem)
(declare-fun source_DO178_033_level_a_cm () Bool)
(declare-fun target_DO178_033_level_a_cm () Bool)
(assert (= source_DO178_033_level_a_cm target_DO178_033_level_a_cm))

; DO178_034_level_a_qa: translation preserves property (matches Coq: Theorem)
(declare-fun source_DO178_034_level_a_qa () Bool)
(declare-fun target_DO178_034_level_a_qa () Bool)
(assert (= source_DO178_034_level_a_qa target_DO178_034_level_a_qa))

; DO178_035_riina_dal_a: translation preserves property (matches Coq: Theorem)
(declare-fun source_DO178_035_riina_dal_a () Bool)
(declare-fun target_DO178_035_riina_dal_a () Bool)
(assert (= source_DO178_035_riina_dal_a target_DO178_035_riina_dal_a))

; DO178_036_riina_has_fm: translation preserves property (matches Coq: Theorem)
(declare-fun source_DO178_036_riina_has_fm () Bool)
(declare-fun target_DO178_036_riina_has_fm () Bool)
(assert (= source_DO178_036_riina_has_fm target_DO178_036_riina_has_fm))

; DO178_037_riina_fm_coq: translation preserves property (matches Coq: Theorem)
(declare-fun source_DO178_037_riina_fm_coq () Bool)
(declare-fun target_DO178_037_riina_fm_coq () Bool)
(assert (= source_DO178_037_riina_fm_coq target_DO178_037_riina_fm_coq))

; DO178_038_riina_planning: translation preserves property (matches Coq: Theorem)
(declare-fun source_DO178_038_riina_planning () Bool)
(declare-fun target_DO178_038_riina_planning () Bool)
(assert (= source_DO178_038_riina_planning target_DO178_038_riina_planning))

; DO178_039_riina_development: translation preserves property (matches Coq: Theorem)
(declare-fun source_DO178_039_riina_development () Bool)
(declare-fun target_DO178_039_riina_development () Bool)
(assert (= source_DO178_039_riina_development target_DO178_039_riina_development))

; DO178_040_complete_certification: translation preserves property (matches Coq: Theorem)
(declare-fun source_DO178_040_complete_certification () Bool)
(declare-fun target_DO178_040_complete_certification () Bool)
(assert (= source_DO178_040_complete_certification target_DO178_040_complete_certification))

; Verify all translation validations are satisfiable
(check-sat)
(exit)
